%block lattice_cart
ang
0.0000000 5.43100/2 5.43100/2
5.43100/2 0.0000000 5.43100/2
5.43100/2 5.43100/2 0.0000000
%endblock lattice_cart

%block positions_frac
Si 0.0 0.0 0.0
Si 1/4 1/4 1/4
%endblock positions_frac
