%block lattice_cart
bohr
0.0000000 10.263103/2 10.263103/2
10.263103/2 0.0000000 10.263103/2
10.263103/2 10.263103/2 0.0000000
%endblock lattice_cart

%block positions_frac
Si 0.0 0.0 0.0
Si 1/4 1/4 1/4
%endblock positions_frac
