%block lattice_abc
bohr
10.263103/sqrt(2) 10.263103/sqrt(2) 10.263103/sqrt(2)
60.0 60.0 60.0
%endblock lattice_abc

%block positions_frac
Si 0.0 0.0 0.0
Si 1/4 1/4 1/4
%endblock positions_frac
